
Gurobi 11.0.2 (win64) logging started Sun Aug 18 13:43:42 2024

Set parameter LogFile to value "D:\Documenti\Scuola\Laurea magistrale unibs\laurea-unibs-mkfsp\output\2024-08-18T10_03_15.889499\logs\instance11_bucket2.log"
Set parameter TimeLimit to value 350
Set parameter MIPGap to value 0
Gurobi Optimizer version 11.0.2 build v11.0.2rc0 (win64 - Windows 10.0 (19045.2))

CPU model: Intel(R) Core(TM) i5-4670 CPU @ 3.40GHz, instruction set [SSE2|AVX|AVX2]
Thread count: 4 physical cores, 4 logical processors, using up to 4 threads

Optimize a model with 2887 rows, 12032 columns and 335198 nonzeros
Model fingerprint: 0x3dd40fbd
Variable types: 0 continuous, 12032 integer (11891 binary)
Coefficient statistics:
  Matrix range     [1e+00, 8e+03]
  Objective range  [6e+02, 8e+03]
  Bounds range     [1e+00, 1e+00]
  RHS range        [1e+00, 6e+05]
Found heuristic solution: objective 579921.00000
Presolve time: 0.66s
Presolved: 2887 rows, 12032 columns, 335198 nonzeros
Variable types: 0 continuous, 12032 integer (11891 binary)
Found heuristic solution: objective 670408.00000
Deterministic concurrent LP optimizer: primal and dual simplex
Showing primal log only...

Concurrent spin time: 0.00s

Solved with dual simplex

Root relaxation: objective 8.191720e+05, 1042 iterations, 0.18 seconds (0.18 work units)

    Nodes    |    Current Node    |     Objective Bounds      |     Work
 Expl Unexpl |  Obj  Depth IntInf | Incumbent    BestBd   Gap | It/Node Time

H    0     0                    819172.00000 819172.000  0.00%     -    0s
     0     0 819172.000    0  709 819172.000 819172.000  0.00%     -    0s

Explored 1 nodes (1042 simplex iterations) in 0.91 seconds (0.79 work units)
Thread count was 4 (of 4 available processors)

Solution count 3: 819172 670408 579921 

Optimal solution found (tolerance 0.00e+00)
Best objective 8.191720000000e+05, best bound 8.191720000000e+05, gap 0.0000%
